c colouring generated by benchmark framework
p edge 25 160
v 1 0
v 2 1
v 3 4
v 4 2
v 5 3
v 6 4
v 7 2
v 8 3
v 9 0
v 10 1
v 11 3
v 12 0
v 13 1
v 14 4
v 15 2
v 16 1
v 17 4
v 18 2
v 19 3
v 20 0
v 21 2
v 22 3
v 23 0
v 24 1
v 25 4
